;; Mutation-Based Equivalence Benchmark
;; Source:     AutomatArk / instance12548.smt2
;; Mutations:  intersect_no_at_sign, literal_char_dec
;; Status:     sat
;;
;; Original regex vs mutated regex
;; Equivalence check: unsat ⟺ L(R1) = L(R2)

(set-info :smt-lib-version 2.6)
(set-info :category "mutation")
(set-info :status sat)
(set-logic QF_S)


;; R1: original
;; R2: mutated (intersect_no_at_sign, literal_char_dec)
(assert
  (not
    (=
      (re.++ (re.union (str.to_re "0") (re.++ (re.opt (str.to_re "+")) (re.union (re.++ ((_ re.loop 1 1) (re.range "1" "9")) (re.opt (re.range "0" "9"))) (re.++ ((_ re.loop 1 1) (str.to_re "1")) ((_ re.loop 0 2) (re.range "0" "9"))) (re.++ ((_ re.loop 1 1) (str.to_re "2")) (re.union (re.++ ((_ re.loop 1 1) (re.range "0" "4")) ((_ re.loop 1 1) (re.range "0" "9"))) (re.++ ((_ re.loop 1 1) (str.to_re "5")) ((_ re.loop 1 1) (re.range "0" "5")))))))) (str.to_re "\u{a}"))
      (re.++ (re.union (str.to_re "/") (re.inter (re.++ (re.opt (str.to_re "+")) (re.union (re.++ ((_ re.loop 1 1) (re.range "1" "9")) (re.opt (re.range "0" "9"))) (re.++ ((_ re.loop 1 1) (str.to_re "1")) ((_ re.loop 0 2) (re.range "0" "9"))) (re.++ ((_ re.loop 1 1) (str.to_re "2")) (re.union (re.++ ((_ re.loop 1 1) (re.range "0" "4")) ((_ re.loop 1 1) (re.range "0" "9"))) (re.++ ((_ re.loop 1 1) (str.to_re "5")) ((_ re.loop 1 1) (re.range "0" "5"))))))) (re.comp (re.++ re.all (str.to_re "@") re.all)))) (str.to_re "\u{a}")))))

(check-sat)
(exit)
